17,8	0,0	19,7	12,1	0,0	0,0	0,0	0,0	0,0	16,4
11,1	9,8	0,0	5,2	13,1	0,0	0,0	11,4	0,0	0,0
0,0	0,0	19,7	0,0	6,0	8,0	0,0	0,0	19,2	0,0
11,4	0,0	14,2	0,0	0,0	0,0	11,3	0,0	0,0	0,0
0,0	14,0	0,0	18,8	11,8	0,0	0,0	7,8	0,0	0,0
0,0	5,2	5,3	0,0	8,9	5,2	0,0	0,0	14,8	0,0
0,0	6,9	0,0	18,8	0,0	0,0	10,8	0,0	0,0	6,3
12,3	0,0	9,5	0,0	0,0	0,0	0,0	0,0	0,0	19,0
0,0	17,1	0,0	10,4	12,5	0,0	0,0	7,5	0,0	0,0
0,0	0,0	7,3	0,0	0,0	14,8	5,8	0,0	0,0	13,7
									
2,6	4,7	3,1	4,1	4,5	4,1	4,0	4,7	2,9	4,7
